c Random generated cnf formula, satisfiable: false
p cnf 10 50
10 -8 2 0
-1 7 -10 0
1 -4 7 0
-7 8 -9 0
1 -3 -5 0
-3 1 -4 0
-7 6 8 0
10 9 4 0
-5 -7 -4 0
-4 -2 8 0
-6 -4 -9 0
2 -10 5 0
6 1 -4 0
6 2 -4 0
-1 -9 10 0
7 6 -1 0
-6 7 -8 0
-10 7 -3 0
-5 -7 9 0
-1 -2 6 0
-5 4 -6 0
-1 8 -10 0
4 3 -7 0
-10 8 -4 0
2 -5 -8 0
-6 -1 2 0
10 -7 -4 0
2 3 -7 0
-2 5 -7 0
1 7 -2 0
10 -3 1 0
5 -7 -2 0
-3 8 -4 0
1 -6 10 0
5 -1 2 0
9 -6 -7 0
7 4 -2 0
-5 -7 -1 0
-8 -4 -7 0
-4 10 7 0
-9 -3 7 0
-2 -3 9 0
-9 8 -6 0
3 8 -7 0
-5 -8 -4 0
6 1 10 0
3 -5 6 0
-7 1 -10 0
7 9 5 0
-2 -1 3 0
